; -- generated by sygus_to_z3_lite.jl -----
; source     : findidx.parsed.jl
; candidate  : fnd_sum = (ite (= x1 x2) x3 1)

(set-logic LIA)

; -- candidate implementations --
(define-fun fnd_sum ((y1 Int) (y2 Int) (y3 Int)) Int
  ( ite ( = y1 y2 ) y3 1 ))

; -- free variables --
(declare-const x1 Int)
(declare-const x2 Int)
(declare-const x3 Int)

; -- verification condition --
; unsat  ->  candidate is correct for all inputs
; sat    ->  model below is a concrete counterexample
(assert (not
  (and
    (=> (> (+ x1 x2) 15) (= (fnd_sum x1 x2 x3) (+ x1 x2)))
    (=> (and (<= (+ x1 x2) 15) (> (+ x2 x3) 15)) (= (fnd_sum x1 x2 x3) (+ x2 x3)))
    (=> (and (<= (+ x1 x2) 15) (<= (+ x2 x3) 15)) (= (fnd_sum x1 x2 x3) 0))
  )
))

(check-sat)

; free-variable assignments
(get-value (x1 x2 x3))
; synthesised function value(s) at the counterexample point
(get-value ((fnd_sum x1 x2 x3)))

